data/solutions/recovery/degenerate/moderate/flexible/degenerate_moderate_instance1/10.sol
Elapsed time: 0.12
Upper bound: 237489.0
Planning weighted value: 1656186.0
C[0]=237489.0
C[1]=237064.0
C[2]=236583.0
y[0]=0
y[1]=1
y[2]=0
y[3]=2
y[4]=2
y[5]=1
y[6]=2
y[7]=0
y[8]=2
y[9]=2
y[10]=1
y[11]=2
y[12]=1
y[13]=2
y[14]=1
y[15]=0
y[16]=2
y[17]=0
y[18]=1
y[19]=0
y[20]=1
y[21]=1
