data/solutions/recovery/degenerate/moderate/flexible/degenerate_moderate_instance1/10.log

Log started (V12.6.3.0) Sat Apr 21 11:01:57 2018

New value for default parallel thread count: 1

Problem '/tmp/tmpTzIXTX.pyomo.lp' read.
Read time = 0.00 sec. (0.02 ticks)

Problem name         : /tmp/tmpTzIXTX.pyomo.lp
Objective sense      : Minimize
Variables            :      71  [Nneg: 1,  Binary: 66,  General Integer: 4]
Objective nonzeros   :       1
Linear constraints   :      51  [Less: 25,  Equal: 26]
  Nonzeros           :    1019
  RHS nonzeros       :      45

Variables            : Min LB: 0.000000         Max UB: 1.000000       
Objective nonzeros   : Min   : 1.000000         Max   : 1.000000       
Linear constraints   :
  Nonzeros           : Min   : 1.000000         Max   : 93707.00       
  RHS nonzeros       : Min   : 1.000000         Max   : 3.000000       
Tried aggregator 2 times.
MIP Presolve eliminated 22 rows and 3 columns.
Aggregator did 4 substitutions.
Reduced MIP has 25 rows, 64 columns, and 167 nonzeros.
Reduced MIP has 63 binaries, 1 generals, 0 SOSs, and 0 indicators.
Presolve time = 0.00 sec. (0.42 ticks)
Found incumbent of value 711136.000000 after 0.00 sec. (0.63 ticks)
Probing time = 0.00 sec. (0.04 ticks)
Cover probing fixed 0 vars, tightened 6 bounds.
Tried aggregator 1 time.
Reduced MIP has 25 rows, 64 columns, and 167 nonzeros.
Reduced MIP has 63 binaries, 1 generals, 0 SOSs, and 0 indicators.
Presolve time = 0.00 sec. (0.10 ticks)
Probing time = 0.00 sec. (0.03 ticks)
Clique table members: 21.
MIP emphasis: balance optimality and feasibility.
MIP search method: dynamic search.
Parallel mode: none, using 1 thread.
Root relaxation solution time = 0.00 sec. (0.05 ticks)

        Nodes                                         Cuts/
   Node  Left     Objective  IInf  Best Integer    Best Bound    ItCnt     Gap

*     0+    0                       711136.0000    93707.0000            86.82%
      0     0   237045.3333     4   711136.0000   237045.3333        3   66.67%
*     0+    0                       265580.0000   237045.3333            10.74%
      0     0   237046.0000     5   265580.0000      Fract: 2       11   10.74%
*     0+    0                       249007.0000   237046.0000             4.80%
      0     0   237046.0000     8   249007.0000       Cuts: 7       21    4.80%
*     0+    0                       239397.0000   237046.0000             0.98%
*     0+    0                       238260.0000   237046.0000             0.51%
      0     2   237046.0000     8   238260.0000   237046.0000       21    0.51%
Elapsed time = 0.01 sec. (2.12 ticks, tree = 0.01 MB, solutions = 4)
*   260+   68                       237998.0000   237046.0000             0.40%
*   280+   68                       237489.0000   237046.0000             0.19%

Cover cuts applied:  71
Mixed integer rounding cuts applied:  2
Lift and project cuts applied:  1
Gomory fractional cuts applied:  1

Root node processing (before b&c):
  Real time             =    0.01 sec. (2.12 ticks)
Sequential b&c:
  Real time             =    0.07 sec. (64.58 ticks)
                          ------------
Total (root+branch&cut) =    0.08 sec. (66.70 ticks)

Solution pool: 6 solutions saved.

MIP - Integer optimal, tolerance (0.0001/1e-06):  Objective =  2.3748900000e+05
Current MIP best bound =  2.3747275000e+05 (gap = 16.25, 0.01%)
Solution time =    0.08 sec.  Iterations = 5583  Nodes = 1066 (2)
Deterministic time = 66.70 ticks  (811.76 ticks/sec)


Incumbent solution written to file '/tmp/tmp7dOxOq.cplex.sol'.
